NAME : sim17.51641.tour
COMMENT : Length = 51641
COMMENT : Found by LKH [Keld Helsgaun] Sun Sep 16 15:19:58 2018
TYPE : TOUR
DIMENSION : 17
TOUR_SECTION
1
3
13
6
4
10
5
17
14
16
2
11
7
15
9
8
12
-1
EOF
